1 -1 -2 0
1 -3 -4 0
1 -5 -6 0
1 -6 -7 0
1 -4 8 0
1 4 9 0
1 4 7 0
1 10 -11 0
1 -7 12 0
1 9 -13 0
1 -14 -15 0
1 -16 -17 0
1 16 -18 0
1 16 -19 0
1 -20 -21 0
1 -12 22 0
1 -12 23 0
1 -12 -3 0
1 24 14 0
1 24 25 0
1 17 14 0
1 26 17 0
1 26 27 0
1 26 23 0
1 -13 -26 0
1 25 28 0
1 -25 29 0
1 30 -25 0
1 -30 -31 0
1 -32 33 0
1 -34 1 0
1 34 -35 0
1 -36 -37 0
1 -36 -38 0
1 37 -39 0
1 37 -40 0
1 -35 34 0
1 41 42 0
1 41 43 0
1 -42 -11 0
1 -42 41 0
1 -44 45 0
1 -46 47 0
1 -46 -48 0
1 -49 -20 0
1 22 42 0
1 22 -20 0
1 -50 24 0
1 -50 -48 0
1 51 -52 0
1 -53 -45 0
1 -53 54 0
1 53 52 0
1 -55 -14 0
1 55 25 0
1 -55 56 0
1 -31 -55 0
1 -28 57 0
1 -58 59 0
1 -58 57 0
1 -60 -61 0
1 8 -62 0
1 -8 28 0
1 8 -58 0
1 59 -28 0
1 -59 -63 0
1 56 -21 0
1 -56 64 0
1 -27 13 0
1 27 -26 0
1 -27 29 0
1 -15 65 0
1 -66 -67 0
1 68 69 0
1 70 -15 0
1 -67 -66 0
1 -67 69 0
1 71 72 0
1 71 -67 0
1 -73 -74 0
1 73 75 0
1 38 76 0
1 -76 77 0
1 -76 -78 0
1 -79 -80 0
1 77 76 0
1 -81 -82 0
1 -83 76 0
1 83 84 0
1 85 -79 0
1 85 -84 0
1 86 87 0
1 -88 78 0
1 80 -89 0
1 80 77 0
1 80 -90 0
1 -80 -78 0
1 -91 -92 0
1 91 78 0
1 91 85 0
1 87 -93 0
1 87 85 0
1 -94 76 0
1 94 38 0
1 -40 -39 0
1 40 -95 0
1 -48 -96 0
1 -47 -78 0
1 -97 98 0
1 -95 -47 0
1 95 80 0
1 95 -99 0
1 90 -100 0
1 101 -46 0
1 -101 44 0
1 -102 -28 0
1 52 103 0
1 52 -53 0
1 -96 -64 0
1 104 105 0
1 104 52 0
1 -106 -107 0
1 -106 -108 0
1 64 56 0
1 -109 110 0
1 -109 57 0
1 109 -104 0
1 -111 -56 0
1 112 -113 0
1 103 -61 0
1 103 113 0
1 103 -114 0
1 103 -52 0
1 -110 115 0
1 110 -112 0
1 -116 117 0
1 -116 -118 0
1 -116 -64 0
1 116 119 0
1 61 -120 0
1 -61 -60 0
1 61 54 0
1 -120 -69 0
1 -120 -114 0
1 -120 -112 0
1 121 75 0
1 -121 -114 0
1 122 -61 0
1 122 123 0
1 122 -114 0
1 -54 -123 0
1 -124 66 0
1 124 15 0
1 125 124 0
1 -125 126 0
1 74 -127 0
1 -74 -120 0
1 -75 -128 0
1 75 129 0
1 130 -72 0
1 -130 74 0
1 -63 -69 0
1 -131 63 0
1 -131 125 0
1 72 128 0
1 -72 73 0
1 132 129 0
1 65 133 0
1 -65 -75 0
1 -65 134 0
1 65 135 0
1 129 -136 0
1 129 133 0
1 137 -138 0
1 -137 139 0
1 -135 140 0
1 141 137 0
1 139 140 0
1 -142 -133 0
1 142 -143 0
1 142 144 0
1 145 -146 0
1 -147 148 0
1 149 -147 0
1 150 151 0
1 84 -151 0
1 -84 -149 0
1 84 152 0
1 -84 -81 0
1 151 -86 0
1 -153 154 0
1 -153 -155 0
1 -155 93 0
1 -155 147 0
1 -93 83 0
1 93 94 0
1 93 156 0
1 -157 158 0
1 157 -155 0
1 -159 160 0
1 -159 87 0
1 -161 -159 0
1 -156 -162 0
1 -154 163 0
1 158 -157 0
1 -158 -164 0
1 160 165 0
1 -163 166 0
1 -163 -167 0
1 163 -78 0
1 -168 163 0
1 -168 -156 0
1 168 169 0
1 -100 170 0
1 -100 -169 0
1 -100 -171 0
1 100 172 0
1 -173 -174 0
1 -173 156 0
1 -167 79 0
1 175 -161 0
1 99 -95 0
1 99 -109 0
1 -176 -167 0
1 -176 172 0
1 108 166 0
1 108 92 0
1 172 -107 0
1 -92 -91 0
1 -92 177 0
1 -107 114 0
1 -118 -172 0
1 -119 -105 0
1 -178 -179 0
1 -178 -117 0
1 98 178 0
1 -98 108 0
1 180 -95 0
1 -181 -119 0
1 126 -105 0
1 -126 -54 0
1 -127 182 0
1 127 183 0
1 127 122 0
1 -127 -184 0
1 -127 185 0
1 186 185 0
1 -186 -187 0
1 -188 186 0
1 105 118 0
1 -105 119 0
1 -189 186 0
1 184 -186 0
1 190 105 0
1 -190 -121 0
1 123 -121 0
1 123 131 0
1 -191 -192 0
1 191 -193 0
1 -194 131 0
1 -183 -195 0
1 -187 -195 0
1 187 -123 0
1 187 186 0
1 -187 -196 0
1 185 197 0
1 -195 -198 0
1 196 199 0
1 200 -136 0
1 -200 198 0
1 198 201 0
1 -202 -203 0
1 -202 -121 0
1 -193 -204 0
1 193 203 0
1 144 -142 0
1 -144 -65 0
1 133 198 0
1 -205 206 0
1 -205 -142 0
1 205 143 0
1 -207 -130 0
1 206 -208 0
1 209 143 0
1 209 131 0
1 210 211 0
1 -210 206 0
1 210 -212 0
1 -210 213 0
1 -211 214 0
1 134 -215 0
1 134 65 0
1 216 217 0
1 -216 -212 0
1 218 -217 0
1 219 -220 0
1 -212 219 0
1 221 -218 0
1 222 -210 0
1 222 -218 0
1 223 224 0
1 223 -225 0
1 -170 -160 0
1 -170 -226 0
1 170 -100 0
1 -174 -226 0
1 -227 -223 0
1 -227 -228 0
1 -224 174 0
1 224 229 0
1 165 160 0
1 165 -154 0
1 165 228 0
1 162 -226 0
1 162 230 0
1 162 158 0
1 -231 176 0
1 231 227 0
1 -232 233 0
1 232 -175 0
1 -232 228 0
1 232 -227 0
1 -234 -235 0
1 -234 -236 0
1 234 237 0
1 -235 -234 0
1 -238 -233 0
1 239 -119 0
1 -240 -231 0
1 -233 -241 0
1 242 -243 0
1 244 -245 0
1 241 -233 0
1 182 127 0
1 182 246 0
1 -182 247 0
1 248 249 0
1 -248 -246 0
1 250 -251 0
1 249 252 0
1 -179 -253 0
1 -254 -253 0
1 255 -189 0
1 255 -256 0
1 -255 246 0
1 -257 255 0
1 -257 248 0
1 -257 -199 0
1 -177 -92 0
1 -177 257 0
1 247 182 0
1 247 258 0
1 -197 -259 0
1 -260 200 0
1 260 -261 0
1 -262 178 0
1 -262 263 0
1 -262 -264 0
1 259 -265 0
1 259 266 0
1 259 -260 0
1 259 199 0
1 -267 268 0
1 -267 -255 0
1 267 -199 0
1 269 267 0
1 -269 199 0
1 264 270 0
1 -271 -262 0
1 266 -259 0
1 270 260 0
1 272 273 0
1 -272 -184 0
1 272 274 0
1 272 -264 0
1 272 -199 0
1 203 -275 0
1 203 -276 0
1 203 -274 0
1 -203 202 0
1 -275 192 0
1 213 209 0
1 213 -277 0
1 213 -278 0
1 214 -279 0
1 280 -203 0
1 280 281 0
1 -281 208 0
1 -282 -283 0
1 208 284 0
1 -285 -283 0
1 286 281 0
1 -287 288 0
1 -289 290 0
1 291 290 0
1 292 -229 0
1 293 294 0
1 295 -243 0
1 -229 296 0
1 297 -233 0
1 298 297 0
1 -298 -233 0
1 -298 294 0
1 -298 -254 0
1 299 -300 0
1 299 249 0
1 299 -236 0
1 299 -250 0
1 301 -302 0
1 301 303 0
1 -304 -299 0
1 -304 243 0
1 -305 306 0
1 252 -300 0
1 252 307 0
1 -252 308 0
1 252 250 0
1 -261 300 0
1 308 309 0
1 -308 310 0
1 300 311 0
1 -300 261 0
1 -307 -302 0
1 -307 -312 0
1 313 252 0
1 258 267 0
1 258 -177 0
1 -314 315 0
1 316 317 0
1 309 -318 0
1 -319 309 0
1 315 317 0
1 -315 320 0
1 -315 310 0
1 -317 -309 0
1 -278 321 0
1 -322 -272 0
1 318 -323 0
1 318 -177 0
1 318 283 0
1 -318 324 0
1 325 326 0
1 326 322 0
1 -273 -282 0
1 283 279 0
1 -283 -327 0
1 -328 -322 0
1 329 -278 0
1 312 -330 0
1 -312 -313 0
1 -312 331 0
1 -312 -332 0
1 -333 332 0
1 -332 303 0
1 -334 335 0
1 -311 -307 0
1 -336 337 0
1 -336 338 0
1 -336 -339 0
1 336 340 0
1 -339 341 0
1 339 -312 0
1 -330 -339 0
1 -342 -338 0
1 -342 320 0
1 343 344 0
1 -343 273 0
1 343 339 0
1 344 -326 0
1 344 -315 0
1 -327 345 0
1 327 326 0
1 -340 343 0
1 346 345 0
1 346 -336 0
1 347 -337 0
1 -337 343 0
